p cnf 431 390
1 9 5 13 0
17 25 21 29 0
33 41 37 45 0
2 10 6 14 0
18 26 22 30 0
34 42 38 46 0
3 11 7 15 0
19 27 23 31 0
35 43 39 47 0
4 12 8 16 0
20 28 24 32 0
36 44 40 48 0
-1 -9 -111 0
-1 -13 -111 0
-5 -9 -111 0
-5 -13 -111 0
-17 -25 -121 0
-17 -29 -121 0
-21 -25 -121 0
-21 -29 -121 0
-33 -41 -131 0
-33 -45 -131 0
-37 -41 -131 0
-37 -45 -131 0
-2 -10 -211 0
-2 -14 -211 0
-6 -10 -211 0
-6 -14 -211 0
-18 -26 -221 0
-18 -30 -221 0
-22 -26 -221 0
-22 -30 -221 0
-34 -42 -231 0
-34 -46 -231 0
-38 -42 -231 0
-38 -46 -231 0
-3 -11 -311 0
-3 -15 -311 0
-7 -11 -311 0
-7 -15 -311 0
-19 -27 -321 0
-19 -31 -321 0
-23 -27 -321 0
-23 -31 -321 0
-35 -43 -331 0
-35 -47 -331 0
-39 -43 -331 0
-39 -47 -331 0
-4 -12 -411 0
-4 -16 -411 0
-8 -12 -411 0
-8 -16 -411 0
-20 -28 -421 0
-20 -32 -421 0
-24 -28 -421 0
-24 -32 -421 0
-36 -44 -431 0
-36 -48 -431 0
-40 -44 -431 0
-40 -48 -431 0
-111 -112 0
-112 -111 0
-1 -9 -111 0
-1 -13 -111 0
-5 -9 -111 0
-5 -13 -111 0
-17 -25 -121 0
-17 -29 -121 0
-21 -25 -121 0
-21 -29 -121 0
-33 -41 -131 0
-33 -45 -131 0
-37 -41 -131 0
-37 -45 -131 0
-2 -10 -211 0
-2 -14 -211 0
-6 -10 -211 0
-6 -14 -211 0
-18 -26 -221 0
-18 -30 -221 0
-22 -26 -221 0
-22 -30 -221 0
-34 -42 -231 0
-34 -46 -231 0
-38 -42 -231 0
-38 -46 -231 0
-3 -11 -311 0
-3 -15 -311 0
-7 -11 -311 0
-7 -15 -311 0
-19 -27 -321 0
-19 -31 -321 0
-23 -27 -321 0
-23 -31 -321 0
-35 -43 -331 0
-35 -47 -331 0
-39 -43 -331 0
-39 -47 -331 0
-4 -12 -411 0
-4 -16 -411 0
-8 -12 -411 0
-8 -16 -411 0
-20 -28 -421 0
-20 -32 -421 0
-24 -28 -421 0
-24 -32 -421 0
-36 -44 -431 0
-36 -48 -431 0
-40 -44 -431 0
-40 -48 -431 0
-111 -112 0
-112 -111 0
1 2 3 4 0
5 6 7 8 0
9 10 11 12 0
13 14 15 16 0
17 18 19 20 0
21 22 23 24 0
25 26 27 28 0
29 30 31 32 0
33 34 35 36 0
37 38 39 40 0
41 42 43 44 0
45 46 47 48 0
-1 -5 0
-2 -6 0
-3 -7 0
-4 -8 0
-9 -13 0
-10 -14 0
-11 -15 0
-12 -16 0
-17 -21 0
-18 -22 0
-19 -23 0
-20 -24 0
-25 -29 0
-26 -30 0
-27 -31 0
-28 -32 0
-33 -37 0
-34 -38 0
-35 -39 0
-36 -40 0
-41 -45 0
-42 -46 0
-43 -47 0
-44 -48 0
-49 1 5 0
-57 17 21 0
-65 33 37 0
-53 9 13 0
-61 25 29 0
-69 41 45 0
-50 2 6 0
-58 18 22 0
-66 34 38 0
-54 10 14 0
-62 26 30 0
-70 42 46 0
-51 3 7 0
-59 19 23 0
-67 35 39 0
-55 11 15 0
-63 27 31 0
-71 43 47 0
-52 4 8 0
-60 20 24 0
-68 36 40 0
-56 12 16 0
-64 28 32 0
-72 44 48 0
-49 -50 -57 -58 0
-49 -50 -65 -66 0
-49 -50 -61 -62 0
-49 -50 -69 -70 0
-49 -51 -57 -59 0
-49 -51 -65 -67 0
-49 -51 -61 -63 0
-49 -51 -69 -71 0
-49 -52 -57 -60 0
-49 -52 -65 -68 0
-49 -52 -61 -64 0
-49 -52 -69 -72 0
-50 -51 -58 -59 0
-50 -51 -66 -67 0
-50 -51 -62 -63 0
-50 -51 -70 -71 0
-50 -52 -58 -60 0
-50 -52 -66 -68 0
-50 -52 -62 -64 0
-50 -52 -70 -72 0
-51 -52 -59 -60 0
-51 -52 -67 -68 0
-51 -52 -63 -64 0
-51 -52 -71 -72 0
-53 -54 -57 -58 0
-53 -54 -65 -66 0
-53 -54 -61 -62 0
-53 -54 -69 -70 0
-53 -55 -57 -59 0
-53 -55 -65 -67 0
-53 -55 -61 -63 0
-53 -55 -69 -71 0
-53 -56 -57 -60 0
-53 -56 -65 -68 0
-53 -56 -61 -64 0
-53 -56 -69 -72 0
-54 -55 -58 -59 0
-54 -55 -66 -67 0
-54 -55 -62 -63 0
-54 -55 -70 -71 0
-54 -56 -58 -60 0
-54 -56 -66 -68 0
-54 -56 -62 -64 0
-54 -56 -70 -72 0
-55 -56 -59 -60 0
-55 -56 -67 -68 0
-55 -56 -63 -64 0
-55 -56 -71 -72 0
-57 -58 -65 -66 0
-57 -58 -69 -70 0
-57 -59 -65 -67 0
-57 -59 -69 -71 0
-57 -60 -65 -68 0
-57 -60 -69 -72 0
-58 -59 -66 -67 0
-58 -59 -70 -71 0
-58 -60 -66 -68 0
-58 -60 -70 -72 0
-59 -60 -67 -68 0
-59 -60 -71 -72 0
-61 -62 -65 -66 0
-61 -62 -69 -70 0
-61 -63 -65 -67 0
-61 -63 -69 -71 0
-61 -64 -65 -68 0
-61 -64 -69 -72 0
-62 -63 -66 -67 0
-62 -63 -70 -71 0
-62 -64 -66 -68 0
-62 -64 -70 -72 0
-63 -64 -67 -68 0
-63 -64 -71 -72 0
-1 -5 0
-17 -21 0
-33 -37 0
-9 -13 0
-25 -29 0
-41 -45 0
-2 -5 0
-2 -6 0
-18 -21 0
-18 -22 0
-34 -37 0
-34 -38 0
-10 -13 0
-10 -14 0
-26 -29 0
-26 -30 0
-42 -45 0
-42 -46 0
-3 -5 0
-3 -6 0
-3 -7 0
-19 -21 0
-19 -22 0
-19 -23 0
-35 -37 0
-35 -38 0
-35 -39 0
-11 -13 0
-11 -14 0
-11 -15 0
-27 -29 0
-27 -30 0
-27 -31 0
-43 -45 0
-43 -46 0
-43 -47 0
-4 -5 0
-4 -6 0
-4 -7 0
-4 -8 0
-20 -21 0
-20 -22 0
-20 -23 0
-20 -24 0
-36 -37 0
-36 -38 0
-36 -39 0
-36 -40 0
-12 -13 0
-12 -14 0
-12 -15 0
-12 -16 0
-28 -29 0
-28 -30 0
-28 -31 0
-28 -32 0
-44 -45 0
-44 -46 0
-44 -47 0
-44 -48 0
-2 -9 0
-18 -25 0
-34 -41 0
-3 -9 0
-3 -10 0
-19 -25 0
-19 -26 0
-35 -41 0
-35 -42 0
-4 -9 0
-4 -10 0
-4 -11 0
-20 -25 0
-20 -26 0
-20 -27 0
-36 -41 0
-36 -42 0
-36 -43 0
-5 -21 0
-21 -37 0
-6 -21 0
-6 -22 0
-22 -37 0
-22 -38 0
-7 -21 0
-7 -22 0
-7 -23 0
-23 -37 0
-23 -38 0
-23 -39 0
-8 -21 0
-8 -22 0
-8 -23 0
-8 -24 0
-24 -37 0
-24 -38 0
-24 -39 0
-24 -40 0
